webassembly/ejemplos_dzn/folder3_json_73.dzn
TERM = { '.', 's(1)', 's(0)', 'local_0'};
null = '.';
s = 3;
n = 7;
ndeps = 0;
max_registers_sz = 3;
NR = 0;
registers = [| |];
dependencies = [| |];
GET_ENUM = { GET1, GET2, GET3};
SET_ENUM = { SET1, SET2, SET3};
TEE_ENUM = { TEE1, TEE2, TEE3};
N = 3;
OP = { 'i32.const_0', 'i32.load16_u_1', 'local.get_0' };
in_ops = [0, 1, 0 ];
out_ops = [1, 1, 1 ];
in1 = ['.', 'local_0', '.' ];
in2 = ['.', '.', '.' ];
in3 = ['.', '.', '.' ];
out1 = ['s(1)', 's(0)', 'local_0' ];
out2 = ['.', '.', '.' ];
out3 = ['.', '.', '.' ];
comm = [false, false, false ];
gas = [1, 1, 1 ];
sz = [1, 1, 1 ];
stor = [false, false, false ];
lb = [ 1, 1, 1 ];
ub = [ 3, 3, 3 ];
startstack = [ null, null, null, null, null, null, null ];
endstack = [ 's(1)', 's(0)', null, null, null, null, null ];
