webassembly/ejemplos_results/3/folder3_json_73.txt
value = 3;
fgas = [1, 1, 1];
fsize = [1, 1, 1];
states = 
[|     '.',    '.', '.', '.', '.', '.',     '.'
 | local_0,    '.', '.', '.', '.', '.',     '.'
 |  's(0)',    '.', '.', '.', '.', '.', local_0
 |  's(1)', 's(0)', '.', '.', '.', '.',     '.'
 |];
register_states = 
[| '.', '.', '.'
 | '.', '.', '.'
 | '.', '.', '.'
 | '.', '.', '.'
 |];
program = [O('local.get_0'), O('i32.load16_u_1'), O('i32.const_0')];
% time elapsed: 0.04 s
----------
==========
% time elapsed: 0.04 s
% [value > 2]
